	Costo	Iter.	Tiempo
1	524,94	293	45,593
2	852,71	235	71,452
3	848,63	242	176,89
4	1093,54	159	289,062
5	1401,25	112	302,374
6	560,96	188	21,374
7	922,76	289	229,937
8	874,78	219	197,062
9	1257,35	18	305,031
10	1509,51	10	315,327
11	1233,09	137	43,843
12	819,96	192	31,735
13	1624,4	152	53,14
14	871,35	231	40,032
